NComp = 8;
NAlone = 1;
NFlow = 7;
NMoisLocation = 1;
NConcurrence = 4;

CompOs = [|0,0,0,0,1,1,1,1,0,|
          0,0,0,0,1,1,1,1,0,|
          0,0,0,0,1,1,1,1,0,|
          0,0,0,0,1,1,1,1,0,|
          0,0,0,0,1,1,1,1,0,|
          1,0,0,0,0,0,0,0,0,|
          1,0,0,0,0,0,0,0,0,|
          1,0,0,0,0,0,0,0,0,|];
          
CompLoc = [|1,1,0,1,1,0,0,0,0,1,|
            1,1,0,1,1,0,0,0,0,1,|
            1,1,0,1,1,0,0,0,0,1,|
            1,1,0,1,1,0,0,0,0,1,|
            1,1,0,1,1,0,0,0,0,1,|
            0,0,1,0,0,0,0,0,0,0,|
            0,0,1,0,0,0,0,0,0,0,|
            1,1,0,1,1,0,0,0,0,1,|];
            
CompMem = [16,16,8,8,16,8,8,8];
CompProc = [8,8,4,4,8,4,4,4];

CompAlone = [4];
CompFlow = [|1,3,|2,3,|1,5,|5,6,|6,5,|6,7,|3,8,|];
CompConcurrence = [|1,2|3,5,|3,7,|7,8,|];